problem_generation/data/GISP/train/er_n=67_m=1301_p=0.60_SET2_setparam=100.00_alpha=0.50_776.lp
maximize
OBJ:100x0 + 100x1 + 100x2 + 100x3 + 100x4 + 100x5 + 100x6 + 100x7 + 100x8 + 100x9 + 100x10 + 100x11 + 100x12 + 100x13 + 100x14 + 100x15 + 100x16 + 100x17 + 100x18 + 100x19 + 100x20 + 100x21 + 100x22 + 100x23 + 100x24 + 100x25 + 100x26 + 100x27 + 100x28 + 100x29 + 100x30 + 100x31 + 100x32 + 100x33 + 100x34 + 100x35 + 100x36 + 100x37 + 100x38 + 100x39 + 100x40 + 100x41 + 100x42 + 100x43 + 100x44 + 100x45 + 100x46 + 100x47 + 100x48 + 100x49 + 100x50 + 100x51 + 100x52 + 100x53 + 100x54 + 100x55 + 100x56 + 100x57 + 100x58 + 100x59 + 100x60 + 100x61 + 100x62 + 100x63 + 100x64 + 100x65 + 100x66 - y36_53 - y26_30 - y18_26 - y26_39 - y17_58 - y8_9 - y0_5 - y29_41 - y8_18 - y21_37 - y11_14 - y21_46 - y6_57 - y41_42 - y3_6 - y44_56 - y2_50 - y14_51 - y15_16 - y55_61 - y17_44 - y18_30 - y17_62 - y21_32 - y0_9 - y29_54 - y40_54 - y21_50 - y6_61 - y10_22 - y25_38 - y3_10 - y22_23 - y51_59 - y2_54 - y43_55 - y14_28 - y32_64 - y43_64 - y28_39 - y7_16 - y47_52 - y55_65 - y5_46 - y9_53 - y17_66 - y2_22 - y10_35 - y33_37 - y25_33 - y25_42 - y51_54 - y2_49 - y32_50 - y43_50 - y13_55 - y1_62 - y13_64 - y35_64 - y16_60 - y17_25 - y36_38 - y7_11 - y9_30 - y5_41 - y47_56 - y17_52 - y9_48 - y17_61 - y6_33 - y21_31 - y29_44 - y40_44 - y21_40 - y10_12 - y2_8 - y2_17 - y20_53 - y2_26 - y20_62 - y10_39 - y25_28 - y54_64 - y32_36 - y4_63 - y13_41 - y24_41 - y35_41 - y16_37 - y13_50 - y24_50 - y13_59 - y24_59 - y35_59 - y17_20 - y16_64 - y17_29 - y28_29 - y17_47 - y6_10 - y17_56 - y28_56 - y6_28 - y50_62 - y20_39 - y10_16 - y2_12 - y20_48 - y2_21 - y3_4 - y13_45 - y24_45 - y32_58 - y35_45 - y24_54 - y35_54 - y24_63 - y5_22 - y46_60 - y36_37 - y9_20 - y57_60 - y5_31 - y58_61 - y42_44 - y50_57 - y21_30 - y27_64 - y50_66 - y20_34 - y10_11 - y39_47 - y12_39 - y2_16 - y23_48 - y31_61 - y23_57 - y4_53 - y32_35 - y12_66 - y4_62 - y35_40 - y16_36 - y13_49 - y17_19 - y1_65 - y5_26 - y46_64 - y9_24 - y28_37 - y5_44 - y6_9 - y50_52 - y30_46 - y8_55 - y30_55 - y42_57 - y0_51 - y19_64 - y20_29 - y0_60 - y11_60 - y23_34 - y2_11 - y31_47 - y23_43 - y20_56 - y1_15 - y4_48 - y13_26 - y16_22 - y13_35 - y1_42 - y9_10 - y38_46 - y5_21 - y46_59 - y57_59 - y26_53 - y38_55 - y5_30 - y9_28 - y49_64 - y27_36 - y6_13 - y8_32 - y8_41 - y11_37 - y11_46 - y20_33 - y0_64 - y20_42 - y4_34 - y12_56 - y16_17 - y45_53 - y24_30 - y53_66 - y16_26 - y22_60 - y3_65 - y9_14 - y15_48 - y49_50 - y26_57 - y7_53 - y15_66 - y18_62 - y19_27 - y8_36 - y19_36 - y50_51 - y30_45 - y27_58 - y19_54 - y12_15 - y8_63 - y19_63 - y4_11 - y11_59 - y23_24 - y39_41 - y41_60 - y52_60 - y33_65 - y12_42 - y4_38 - y13_16 - y4_47 - y1_23 - y34_57 - y1_32 - y3_51 - y22_64 - y45_66 - y5_11 - y46_49 - y15_43 - y49_54 - y18_48 - y26_61 - y18_57 - y8_22 - y7_66 - y19_31 - y0_27 - y11_36 - y30_49 - y0_45 - y4_6 - y0_54 - y41_55 - y52_55 - y33_51 - y23_28 - y41_64 - y4_24 - y1_9 - y2_63 - y25_65 - y22_41 - y1_18 - y22_50 - y3_46 - y37_48 - y45_61 - y56_61 - y26_29 - y38_40 - y15_47 - y26_47 - y7_43 - y15_56 - y7_52 - y18_52 - y27_30 - y0_13 - y7_61 - y27_39 - y0_22 - y11_22 - y0_31 - y11_31 - y8_44 - y41_50 - y33_46 - y41_59 - y52_59 - y10_62 - y25_60 - y1_13 - y22_54 - y34_56 - y14_50 - y7_29 - y18_29 - y26_42 - y15_51 - y7_47 - y8_12 - y40_53 - y8_30 - y0_26 - y21_58 - y0_35 - y4_5 - y52_63 - y25_46 - y2_53 - y2_62 - y45_51 - y14_45 - y7_24 - y26_37 - y7_33 - y26_46 - y17_65 - y28_65 - y8_16 - y48_52 - y48_61 - y29_57 - y21_62 - y44_45 - y41_58 - y10_52 - y33_54 - y44_54 - y25_50 - y10_61 - y3_22 - y22_35 - y3_31 - y22_44 - y14_40 - y3_49 - y36_46 - y36_55 - y15_32 - y17_51 - y47_64 - y8_11 - y29_52 - y40_52 - y21_48 - y6_59 - y33_40 - y2_34 - y2_43 - y10_56 - y51_57 - y25_54 - y14_17 - y32_53 - y14_26 - y22_39 - y14_35 - y3_44 - y16_63 - y36_41 - y28_46 - y47_59 - y5_62 - y21_25 - y48_51 - y40_47 - y6_54 - y10_15 - y10_24 - y25_31 - y2_47 - y51_61 - y3_21 - y14_21 - y32_57 - y24_53 - y35_53 - y43_57 - y43_66 - y35_62 - y7_9 - y17_41 - y9_37 - y5_48 - y47_63 - y28_59 - y5_66 - y6_31 - y6_49 - y29_51 - y10_19 - y10_28 - y39_64 - y2_24 - y20_60 - y32_34 - y12_65 - y2_42 - y32_52 - y51_65 - y13_48 - y3_25 - y43_61 - y16_53 - y24_66 - y17_27 - y9_23 - y17_36 - y28_45 - y17_54 - y58_64 - y29_37 - y6_44 - y42_65 - y21_42 - y20_46 - y10_23 - y2_19 - y54_57 - y12_51 - y54_66 - y12_60 - y2_37 - y43_47 - y24_43 - y32_56 - y16_39 - y13_52 - y24_52 - y32_65 - y16_48 - y35_52 - y1_59 - y24_61 - y35_61 - y16_57 - y5_20 - y17_22 - y16_66 - y17_31 - y28_31 - y36_44 - y9_36 - y17_49 - y28_49 - y58_59 - y42_51 - y61_64 - y0_63 - y39_45 - y2_5 - y39_54 - y20_50 - y31_50 - y39_63 - y12_46 - y2_23 - y4_42 - y20_59 - y54_61 - y12_64 - y1_27 - y13_29 - y35_38 - y43_51 - y1_45 - y24_56 - y5_15 - y1_63 - y65_66 - y16_61 - y5_24 - y38_58 - y9_31 - y5_42 - y28_44 - y5_51 - y27_48 - y21_23 - y19_53 - y0_49 - y8_62 - y20_27 - y42_64 - y20_36 - y12_32 - y39_58 - y1_22 - y53_60 - y32_37 - y4_64 - y1_40 - y24_42 - y35_42 - y1_49 - y24_51 - y17_21 - y46_57 - y9_17 - y49_53 - y5_28 - y49_62 - y5_37 - y27_34 - y27_43 - y6_20 - y30_48 - y30_57 - y0_53 - y11_62 - y12_27 - y23_27 - y31_40 - y39_53 - y20_49 - y23_54 - y53_64 - y4_59 - y34_60 - y24_37 - y35_37 - y16_33 - y5_14 - y46_52 - y15_46 - y57_61 - y9_21 - y7_51 - y18_51 - y38_66 - y18_60 - y27_38 - y30_34 - y11_39 - y42_54 - y11_48 - y12_13 - y30_61 - y20_26 - y20_35 - y0_66 - y4_27 - y4_45 - y45_46 - y1_21 - y13_23 - y16_19 - y34_55 - y1_30 - y45_55 - y3_58 - y38_43 - y38_52 - y49_52 - y49_61 - y18_55 - y8_20 - y27_33 - y7_64 - y8_29 - y8_38 - y19_38 - y11_34 - y0_52 - y4_13 - y0_61 - y12_26 - y52_62 - y4_31 - y1_7 - y13_18 - y34_50 - y45_50 - y1_25 - y37_46 - y22_57 - y56_59 - y15_27 - y26_36 - y26_45 - y7_41 - y15_54 - y26_54 - y7_50 - y18_50 - y26_63 - y0_11 - y7_59 - y18_59 - y48_60 - y27_37 - y0_20 - y8_33 - y19_33 - y0_29 - y40_65 - y0_38 - y11_38 - y20_25 - y12_21 - y41_57 - y33_53 - y12_30 - y23_30 - y52_66 - y10_60 - y53_58 - y14_39 - y45_54 - y3_48 - y22_61 - y56_63 - y7_27 - y59_65 - y26_40 - y38_42 - y7_36 - y18_54 - y19_28 - y11_24 - y8_37 - y33_39 - y60_65 - y33_48 - y25_53 - y44_66 - y22_38 - y22_65 - y7_13 - y3_61 - y59_60 - y18_31 - y18_40 - y8_14 - y29_46 - y40_46 - y48_59 - y0_19 - y21_51 - y11_28 - y29_64 - y25_30 - y4_7 - y52_56 - y4_16 - y10_50 - y2_46 - y10_59 - y44_61 - y3_20 - y22_33 - y2_64 - y3_29 - y22_51 - y14_47 - y7_8
 Subject to
C1: x0+x1 <=1 
C2: x0+x4 <=1 
C3: x0+x5-y0_5 <=1 
C4: x0+x9-y0_9 <=1 
C5: x0+x10 <=1 
C6: x0+x11-y0_11 <=1 
C7: x0+x13-y0_13 <=1 
C8: x0+x14 <=1 
C9: x0+x16 <=1 
C10: x0+x19-y0_19 <=1 
C11: x0+x20-y0_20 <=1 
C12: x0+x22-y0_22 <=1 
C13: x0+x23 <=1 
C14: x0+x26-y0_26 <=1 
C15: x0+x27-y0_27 <=1 
C16: x0+x28 <=1 
C17: x0+x29-y0_29 <=1 
C18: x0+x31-y0_31 <=1 
C19: x0+x32 <=1 
C20: x0+x33 <=1 
C21: x0+x35-y0_35 <=1 
C22: x0+x38-y0_38 <=1 
C23: x0+x41 <=1 
C24: x0+x45-y0_45 <=1 
C25: x0+x48 <=1 
C26: x0+x49-y0_49 <=1 
C27: x0+x51-y0_51 <=1 
C28: x0+x52-y0_52 <=1 
C29: x0+x53-y0_53 <=1 
C30: x0+x54-y0_54 <=1 
C31: x0+x58 <=1 
C32: x0+x59 <=1 
C33: x0+x60-y0_60 <=1 
C34: x0+x61-y0_61 <=1 
C35: x0+x63-y0_63 <=1 
C36: x0+x64-y0_64 <=1 
C37: x0+x66-y0_66 <=1 
C38: x1+x3 <=1 
C39: x1+x5 <=1 
C40: x1+x7-y1_7 <=1 
C41: x1+x8 <=1 
C42: x1+x9-y1_9 <=1 
C43: x1+x10 <=1 
C44: x1+x13-y1_13 <=1 
C45: x1+x15-y1_15 <=1 
C46: x1+x17 <=1 
C47: x1+x18-y1_18 <=1 
C48: x1+x19 <=1 
C49: x1+x21-y1_21 <=1 
C50: x1+x22-y1_22 <=1 
C51: x1+x23-y1_23 <=1 
C52: x1+x25-y1_25 <=1 
C53: x1+x26 <=1 
C54: x1+x27-y1_27 <=1 
C55: x1+x29 <=1 
C56: x1+x30-y1_30 <=1 
C57: x1+x32-y1_32 <=1 
C58: x1+x33 <=1 
C59: x1+x35 <=1 
C60: x1+x40-y1_40 <=1 
C61: x1+x42-y1_42 <=1 
C62: x1+x44 <=1 
C63: x1+x45-y1_45 <=1 
C64: x1+x47 <=1 
C65: x1+x49-y1_49 <=1 
C66: x1+x51 <=1 
C67: x1+x53 <=1 
C68: x1+x54 <=1 
C69: x1+x56 <=1 
C70: x1+x58 <=1 
C71: x1+x59-y1_59 <=1 
C72: x1+x60 <=1 
C73: x1+x62-y1_62 <=1 
C74: x1+x63-y1_63 <=1 
C75: x1+x65-y1_65 <=1 
C76: x2+x5-y2_5 <=1 
C77: x2+x8-y2_8 <=1 
C78: x2+x10 <=1 
C79: x2+x11-y2_11 <=1 
C80: x2+x12-y2_12 <=1 
C81: x2+x13 <=1 
C82: x2+x16-y2_16 <=1 
C83: x2+x17-y2_17 <=1 
C84: x2+x18 <=1 
C85: x2+x19-y2_19 <=1 
C86: x2+x20 <=1 
C87: x2+x21-y2_21 <=1 
C88: x2+x22-y2_22 <=1 
C89: x2+x23-y2_23 <=1 
C90: x2+x24-y2_24 <=1 
C91: x2+x26-y2_26 <=1 
C92: x2+x27 <=1 
C93: x2+x29 <=1 
C94: x2+x30 <=1 
C95: x2+x33 <=1 
C96: x2+x34-y2_34 <=1 
C97: x2+x35 <=1 
C98: x2+x37-y2_37 <=1 
C99: x2+x38 <=1 
C100: x2+x39 <=1 
C101: x2+x41 <=1 
C102: x2+x42-y2_42 <=1 
C103: x2+x43-y2_43 <=1 
C104: x2+x45 <=1 
C105: x2+x46-y2_46 <=1 
C106: x2+x47-y2_47 <=1 
C107: x2+x49-y2_49 <=1 
C108: x2+x50-y2_50 <=1 
C109: x2+x51 <=1 
C110: x2+x53-y2_53 <=1 
C111: x2+x54-y2_54 <=1 
C112: x2+x56 <=1 
C113: x2+x59 <=1 
C114: x2+x62-y2_62 <=1 
C115: x2+x63-y2_63 <=1 
C116: x2+x64-y2_64 <=1 
C117: x2+x65 <=1 
C118: x3+x4-y3_4 <=1 
C119: x3+x5 <=1 
C120: x3+x6-y3_6 <=1 
C121: x3+x8 <=1 
C122: x3+x10-y3_10 <=1 
C123: x3+x11 <=1 
C124: x3+x15 <=1 
C125: x3+x17 <=1 
C126: x3+x20-y3_20 <=1 
C127: x3+x21-y3_21 <=1 
C128: x3+x22-y3_22 <=1 
C129: x3+x25-y3_25 <=1 
C130: x3+x27 <=1 
C131: x3+x28 <=1 
C132: x3+x29-y3_29 <=1 
C133: x3+x31-y3_31 <=1 
C134: x3+x33 <=1 
C135: x3+x39 <=1 
C136: x3+x40 <=1 
C137: x3+x41 <=1 
C138: x3+x42 <=1 
C139: x3+x44-y3_44 <=1 
C140: x3+x46-y3_46 <=1 
C141: x3+x48-y3_48 <=1 
C142: x3+x49-y3_49 <=1 
C143: x3+x51-y3_51 <=1 
C144: x3+x57 <=1 
C145: x3+x58-y3_58 <=1 
C146: x3+x61-y3_61 <=1 
C147: x3+x62 <=1 
C148: x3+x63 <=1 
C149: x3+x65-y3_65 <=1 
C150: x3+x66 <=1 
C151: x4+x5-y4_5 <=1 
C152: x4+x6-y4_6 <=1 
C153: x4+x7-y4_7 <=1 
C154: x4+x9 <=1 
C155: x4+x11-y4_11 <=1 
C156: x4+x13-y4_13 <=1 
C157: x4+x15 <=1 
C158: x4+x16-y4_16 <=1 
C159: x4+x19 <=1 
C160: x4+x20 <=1 
C161: x4+x22 <=1 
C162: x4+x23 <=1 
C163: x4+x24-y4_24 <=1 
C164: x4+x27-y4_27 <=1 
C165: x4+x28 <=1 
C166: x4+x29 <=1 
C167: x4+x31-y4_31 <=1 
C168: x4+x32 <=1 
C169: x4+x34-y4_34 <=1 
C170: x4+x37 <=1 
C171: x4+x38-y4_38 <=1 
C172: x4+x40 <=1 
C173: x4+x42-y4_42 <=1 
C174: x4+x45-y4_45 <=1 
C175: x4+x47-y4_47 <=1 
C176: x4+x48-y4_48 <=1 
C177: x4+x53-y4_53 <=1 
C178: x4+x54 <=1 
C179: x4+x55 <=1 
C180: x4+x56 <=1 
C181: x4+x58 <=1 
C182: x4+x59-y4_59 <=1 
C183: x4+x60 <=1 
C184: x4+x61 <=1 
C185: x4+x62-y4_62 <=1 
C186: x4+x63-y4_63 <=1 
C187: x4+x64-y4_64 <=1 
C188: x4+x65 <=1 
C189: x5+x8 <=1 
C190: x5+x11-y5_11 <=1 
C191: x5+x12 <=1 
C192: x5+x14-y5_14 <=1 
C193: x5+x15-y5_15 <=1 
C194: x5+x17 <=1 
C195: x5+x19 <=1 
C196: x5+x20-y5_20 <=1 
C197: x5+x21-y5_21 <=1 
C198: x5+x22-y5_22 <=1 
C199: x5+x24-y5_24 <=1 
C200: x5+x25 <=1 
C201: x5+x26-y5_26 <=1 
C202: x5+x28-y5_28 <=1 
C203: x5+x29 <=1 
C204: x5+x30-y5_30 <=1 
C205: x5+x31-y5_31 <=1 
C206: x5+x35 <=1 
C207: x5+x36 <=1 
C208: x5+x37-y5_37 <=1 
C209: x5+x38 <=1 
C210: x5+x41-y5_41 <=1 
C211: x5+x42-y5_42 <=1 
C212: x5+x44-y5_44 <=1 
C213: x5+x46-y5_46 <=1 
C214: x5+x48-y5_48 <=1 
C215: x5+x50 <=1 
C216: x5+x51-y5_51 <=1 
C217: x5+x53 <=1 
C218: x5+x54 <=1 
C219: x5+x55 <=1 
C220: x5+x56 <=1 
C221: x5+x57 <=1 
C222: x5+x58 <=1 
C223: x5+x59 <=1 
C224: x5+x60 <=1 
C225: x5+x62-y5_62 <=1 
C226: x5+x63 <=1 
C227: x5+x66-y5_66 <=1 
C228: x6+x8 <=1 
C229: x6+x9-y6_9 <=1 
C230: x6+x10-y6_10 <=1 
C231: x6+x13-y6_13 <=1 
C232: x6+x14 <=1 
C233: x6+x15 <=1 
C234: x6+x17 <=1 
C235: x6+x20-y6_20 <=1 
C236: x6+x21 <=1 
C237: x6+x22 <=1 
C238: x6+x25 <=1 
C239: x6+x26 <=1 
C240: x6+x28-y6_28 <=1 
C241: x6+x31-y6_31 <=1 
C242: x6+x33-y6_33 <=1 
C243: x6+x35 <=1 
C244: x6+x36 <=1 
C245: x6+x37 <=1 
C246: x6+x38 <=1 
C247: x6+x39 <=1 
C248: x6+x40 <=1 
C249: x6+x41 <=1 
C250: x6+x42 <=1 
C251: x6+x44-y6_44 <=1 
C252: x6+x45 <=1 
C253: x6+x47 <=1 
C254: x6+x49-y6_49 <=1 
C255: x6+x52 <=1 
C256: x6+x54-y6_54 <=1 
C257: x6+x57-y6_57 <=1 
C258: x6+x59-y6_59 <=1 
C259: x6+x60 <=1 
C260: x6+x61-y6_61 <=1 
C261: x6+x63 <=1 
C262: x6+x64 <=1 
C263: x7+x8-y7_8 <=1 
C264: x7+x9-y7_9 <=1 
C265: x7+x11-y7_11 <=1 
C266: x7+x13-y7_13 <=1 
C267: x7+x15 <=1 
C268: x7+x16-y7_16 <=1 
C269: x7+x17 <=1 
C270: x7+x20 <=1 
C271: x7+x22 <=1 
C272: x7+x23 <=1 
C273: x7+x24-y7_24 <=1 
C274: x7+x27-y7_27 <=1 
C275: x7+x29-y7_29 <=1 
C276: x7+x31 <=1 
C277: x7+x32 <=1 
C278: x7+x33-y7_33 <=1 
C279: x7+x34 <=1 
C280: x7+x36-y7_36 <=1 
C281: x7+x37 <=1 
C282: x7+x41-y7_41 <=1 
C283: x7+x43-y7_43 <=1 
C284: x7+x44 <=1 
C285: x7+x45 <=1 
C286: x7+x46 <=1 
C287: x7+x47-y7_47 <=1 
C288: x7+x48 <=1 
C289: x7+x49 <=1 
C290: x7+x50-y7_50 <=1 
C291: x7+x51-y7_51 <=1 
C292: x7+x52-y7_52 <=1 
C293: x7+x53-y7_53 <=1 
C294: x7+x55 <=1 
C295: x7+x56 <=1 
C296: x7+x59-y7_59 <=1 
C297: x7+x61-y7_61 <=1 
C298: x7+x62 <=1 
C299: x7+x63 <=1 
C300: x7+x64-y7_64 <=1 
C301: x7+x65 <=1 
C302: x7+x66-y7_66 <=1 
C303: x8+x9-y8_9 <=1 
C304: x8+x10 <=1 
C305: x8+x11-y8_11 <=1 
C306: x8+x12-y8_12 <=1 
C307: x8+x14-y8_14 <=1 
C308: x8+x15 <=1 
C309: x8+x16-y8_16 <=1 
C310: x8+x17 <=1 
C311: x8+x18-y8_18 <=1 
C312: x8+x19 <=1 
C313: x8+x20-y8_20 <=1 
C314: x8+x21 <=1 
C315: x8+x22-y8_22 <=1 
C316: x8+x23 <=1 
C317: x8+x29-y8_29 <=1 
C318: x8+x30-y8_30 <=1 
C319: x8+x32-y8_32 <=1 
C320: x8+x33-y8_33 <=1 
C321: x8+x34 <=1 
C322: x8+x36-y8_36 <=1 
C323: x8+x37-y8_37 <=1 
C324: x8+x38-y8_38 <=1 
C325: x8+x39 <=1 
C326: x8+x41-y8_41 <=1 
C327: x8+x43 <=1 
C328: x8+x44-y8_44 <=1 
C329: x8+x46 <=1 
C330: x8+x48 <=1 
C331: x8+x49 <=1 
C332: x8+x52 <=1 
C333: x8+x53 <=1 
C334: x8+x54 <=1 
C335: x8+x55-y8_55 <=1 
C336: x8+x59 <=1 
C337: x8+x62-y8_62 <=1 
C338: x8+x63-y8_63 <=1 
C339: x8+x65 <=1 
C340: x8+x66 <=1 
C341: x9+x10-y9_10 <=1 
C342: x9+x11 <=1 
C343: x9+x12 <=1 
C344: x9+x14-y9_14 <=1 
C345: x9+x17-y9_17 <=1 
C346: x9+x18 <=1 
C347: x9+x19 <=1 
C348: x9+x20-y9_20 <=1 
C349: x9+x21-y9_21 <=1 
C350: x9+x23-y9_23 <=1 
C351: x9+x24-y9_24 <=1 
C352: x9+x25 <=1 
C353: x9+x28-y9_28 <=1 
C354: x9+x29 <=1 
C355: x9+x30-y9_30 <=1 
C356: x9+x31-y9_31 <=1 
C357: x9+x33 <=1 
C358: x9+x35 <=1 
C359: x9+x36-y9_36 <=1 
C360: x9+x37-y9_37 <=1 
C361: x9+x39 <=1 
C362: x9+x40 <=1 
C363: x9+x42 <=1 
C364: x9+x44 <=1 
C365: x9+x47 <=1 
C366: x9+x48-y9_48 <=1 
C367: x9+x53-y9_53 <=1 
C368: x9+x54 <=1 
C369: x9+x56 <=1 
C370: x9+x61 <=1 
C371: x9+x62 <=1 
C372: x9+x64 <=1 
C373: x10+x11-y10_11 <=1 
C374: x10+x12-y10_12 <=1 
C375: x10+x14 <=1 
C376: x10+x15-y10_15 <=1 
C377: x10+x16-y10_16 <=1 
C378: x10+x19-y10_19 <=1 
C379: x10+x20 <=1 
C380: x10+x21 <=1 
C381: x10+x22-y10_22 <=1 
C382: x10+x23-y10_23 <=1 
C383: x10+x24-y10_24 <=1 
C384: x10+x25 <=1 
C385: x10+x28-y10_28 <=1 
C386: x10+x29 <=1 
C387: x10+x30 <=1 
C388: x10+x32 <=1 
C389: x10+x35-y10_35 <=1 
C390: x10+x36 <=1 
C391: x10+x37 <=1 
C392: x10+x38 <=1 
C393: x10+x39-y10_39 <=1 
C394: x10+x48 <=1 
C395: x10+x49 <=1 
C396: x10+x50-y10_50 <=1 
C397: x10+x52-y10_52 <=1 
C398: x10+x55 <=1 
C399: x10+x56-y10_56 <=1 
C400: x10+x57 <=1 
C401: x10+x58 <=1 
C402: x10+x59-y10_59 <=1 
C403: x10+x60-y10_60 <=1 
C404: x10+x61-y10_61 <=1 
C405: x10+x62-y10_62 <=1 
C406: x10+x63 <=1 
C407: x11+x14-y11_14 <=1 
C408: x11+x15 <=1 
C409: x11+x17 <=1 
C410: x11+x20 <=1 
C411: x11+x21 <=1 
C412: x11+x22-y11_22 <=1 
C413: x11+x24-y11_24 <=1 
C414: x11+x25 <=1 
C415: x11+x26 <=1 
C416: x11+x27 <=1 
C417: x11+x28-y11_28 <=1 
C418: x11+x31-y11_31 <=1 
C419: x11+x32 <=1 
C420: x11+x33 <=1 
C421: x11+x34-y11_34 <=1 
C422: x11+x35 <=1 
C423: x11+x36-y11_36 <=1 
C424: x11+x37-y11_37 <=1 
C425: x11+x38-y11_38 <=1 
C426: x11+x39-y11_39 <=1 
C427: x11+x42 <=1 
C428: x11+x46-y11_46 <=1 
C429: x11+x48-y11_48 <=1 
C430: x11+x53 <=1 
C431: x11+x56 <=1 
C432: x11+x58 <=1 
C433: x11+x59-y11_59 <=1 
C434: x11+x60-y11_60 <=1 
C435: x11+x62-y11_62 <=1 
C436: x11+x66 <=1 
C437: x12+x13-y12_13 <=1 
C438: x12+x15-y12_15 <=1 
C439: x12+x16 <=1 
C440: x12+x19 <=1 
C441: x12+x20 <=1 
C442: x12+x21-y12_21 <=1 
C443: x12+x22 <=1 
C444: x12+x25 <=1 
C445: x12+x26-y12_26 <=1 
C446: x12+x27-y12_27 <=1 
C447: x12+x28 <=1 
C448: x12+x30-y12_30 <=1 
C449: x12+x32-y12_32 <=1 
C450: x12+x34 <=1 
C451: x12+x36 <=1 
C452: x12+x39-y12_39 <=1 
C453: x12+x41 <=1 
C454: x12+x42-y12_42 <=1 
C455: x12+x43 <=1 
C456: x12+x46-y12_46 <=1 
C457: x12+x47 <=1 
C458: x12+x50 <=1 
C459: x12+x51-y12_51 <=1 
C460: x12+x56-y12_56 <=1 
C461: x12+x58 <=1 
C462: x12+x60-y12_60 <=1 
C463: x12+x62 <=1 
C464: x12+x64-y12_64 <=1 
C465: x12+x65-y12_65 <=1 
C466: x12+x66-y12_66 <=1 
C467: x13+x14 <=1 
C468: x13+x16-y13_16 <=1 
C469: x13+x17 <=1 
C470: x13+x18-y13_18 <=1 
C471: x13+x22 <=1 
C472: x13+x23-y13_23 <=1 
C473: x13+x26-y13_26 <=1 
C474: x13+x29-y13_29 <=1 
C475: x13+x32 <=1 
C476: x13+x33 <=1 
C477: x13+x35-y13_35 <=1 
C478: x13+x36 <=1 
C479: x13+x37 <=1 
C480: x13+x38 <=1 
C481: x13+x41-y13_41 <=1 
C482: x13+x45-y13_45 <=1 
C483: x13+x48-y13_48 <=1 
C484: x13+x49-y13_49 <=1 
C485: x13+x50-y13_50 <=1 
C486: x13+x52-y13_52 <=1 
C487: x13+x53 <=1 
C488: x13+x55-y13_55 <=1 
C489: x13+x56 <=1 
C490: x13+x58 <=1 
C491: x13+x59-y13_59 <=1 
C492: x13+x62 <=1 
C493: x13+x64-y13_64 <=1 
C494: x13+x65 <=1 
C495: x14+x15 <=1 
C496: x14+x17-y14_17 <=1 
C497: x14+x18 <=1 
C498: x14+x19 <=1 
C499: x14+x21-y14_21 <=1 
C500: x14+x23 <=1 
C501: x14+x24 <=1 
C502: x14+x26-y14_26 <=1 
C503: x14+x28-y14_28 <=1 
C504: x14+x34 <=1 
C505: x14+x35-y14_35 <=1 
C506: x14+x37 <=1 
C507: x14+x39-y14_39 <=1 
C508: x14+x40-y14_40 <=1 
C509: x14+x41 <=1 
C510: x14+x42 <=1 
C511: x14+x43 <=1 
C512: x14+x44 <=1 
C513: x14+x45-y14_45 <=1 
C514: x14+x46 <=1 
C515: x14+x47-y14_47 <=1 
C516: x14+x49 <=1 
C517: x14+x50-y14_50 <=1 
C518: x14+x51-y14_51 <=1 
C519: x14+x54 <=1 
C520: x14+x56 <=1 
C521: x14+x57 <=1 
C522: x14+x58 <=1 
C523: x14+x60 <=1 
C524: x14+x61 <=1 
C525: x14+x63 <=1 
C526: x14+x64 <=1 
C527: x15+x16-y15_16 <=1 
C528: x15+x17 <=1 
C529: x15+x25 <=1 
C530: x15+x27-y15_27 <=1 
C531: x15+x32-y15_32 <=1 
C532: x15+x35 <=1 
C533: x15+x38 <=1 
C534: x15+x43-y15_43 <=1 
C535: x15+x44 <=1 
C536: x15+x46-y15_46 <=1 
C537: x15+x47-y15_47 <=1 
C538: x15+x48-y15_48 <=1 
C539: x15+x51-y15_51 <=1 
C540: x15+x53 <=1 
C541: x15+x54-y15_54 <=1 
C542: x15+x55 <=1 
C543: x15+x56-y15_56 <=1 
C544: x15+x58 <=1 
C545: x15+x60 <=1 
C546: x15+x61 <=1 
C547: x15+x63 <=1 
C548: x15+x66-y15_66 <=1 
C549: x16+x17-y16_17 <=1 
C550: x16+x19-y16_19 <=1 
C551: x16+x20 <=1 
C552: x16+x21 <=1 
C553: x16+x22-y16_22 <=1 
C554: x16+x25 <=1 
C555: x16+x26-y16_26 <=1 
C556: x16+x28 <=1 
C557: x16+x30 <=1 
C558: x16+x31 <=1 
C559: x16+x33-y16_33 <=1 
C560: x16+x36-y16_36 <=1 
C561: x16+x37-y16_37 <=1 
C562: x16+x39-y16_39 <=1 
C563: x16+x41 <=1 
C564: x16+x42 <=1 
C565: x16+x45 <=1 
C566: x16+x46 <=1 
C567: x16+x48-y16_48 <=1 
C568: x16+x49 <=1 
C569: x16+x50 <=1 
C570: x16+x51 <=1 
C571: x16+x52 <=1 
C572: x16+x53-y16_53 <=1 
C573: x16+x54 <=1 
C574: x16+x56 <=1 
C575: x16+x57-y16_57 <=1 
C576: x16+x59 <=1 
C577: x16+x60-y16_60 <=1 
C578: x16+x61-y16_61 <=1 
C579: x16+x62 <=1 
C580: x16+x63-y16_63 <=1 
C581: x16+x64-y16_64 <=1 
C582: x16+x66-y16_66 <=1 
C583: x17+x19-y17_19 <=1 
C584: x17+x20-y17_20 <=1 
C585: x17+x21-y17_21 <=1 
C586: x17+x22-y17_22 <=1 
C587: x17+x23 <=1 
C588: x17+x24 <=1 
C589: x17+x25-y17_25 <=1 
C590: x17+x26 <=1 
C591: x17+x27-y17_27 <=1 
C592: x17+x29-y17_29 <=1 
C593: x17+x30 <=1 
C594: x17+x31-y17_31 <=1 
C595: x17+x35 <=1 
C596: x17+x36-y17_36 <=1 
C597: x17+x39 <=1 
C598: x17+x40 <=1 
C599: x17+x41-y17_41 <=1 
C600: x17+x42 <=1 
C601: x17+x44-y17_44 <=1 
C602: x17+x46 <=1 
C603: x17+x47-y17_47 <=1 
C604: x17+x48 <=1 
C605: x17+x49-y17_49 <=1 
C606: x17+x50 <=1 
C607: x17+x51-y17_51 <=1 
C608: x17+x52-y17_52 <=1 
C609: x17+x54-y17_54 <=1 
C610: x17+x56-y17_56 <=1 
C611: x17+x57 <=1 
C612: x17+x58-y17_58 <=1 
C613: x17+x61-y17_61 <=1 
C614: x17+x62-y17_62 <=1 
C615: x17+x63 <=1 
C616: x17+x64 <=1 
C617: x17+x65-y17_65 <=1 
C618: x17+x66-y17_66 <=1 
C619: x18+x19 <=1 
C620: x18+x21 <=1 
C621: x18+x23 <=1 
C622: x18+x26-y18_26 <=1 
C623: x18+x27 <=1 
C624: x18+x29-y18_29 <=1 
C625: x18+x30-y18_30 <=1 
C626: x18+x31-y18_31 <=1 
C627: x18+x34 <=1 
C628: x18+x35 <=1 
C629: x18+x38 <=1 
C630: x18+x40-y18_40 <=1 
C631: x18+x43 <=1 
C632: x18+x44 <=1 
C633: x18+x48-y18_48 <=1 
C634: x18+x50-y18_50 <=1 
C635: x18+x51-y18_51 <=1 
C636: x18+x52-y18_52 <=1 
C637: x18+x54-y18_54 <=1 
C638: x18+x55-y18_55 <=1 
C639: x18+x56 <=1 
C640: x18+x57-y18_57 <=1 
C641: x18+x58 <=1 
C642: x18+x59-y18_59 <=1 
C643: x18+x60-y18_60 <=1 
C644: x18+x62-y18_62 <=1 
C645: x18+x66 <=1 
C646: x19+x23 <=1 
C647: x19+x24 <=1 
C648: x19+x25 <=1 
C649: x19+x26 <=1 
C650: x19+x27-y19_27 <=1 
C651: x19+x28-y19_28 <=1 
C652: x19+x31-y19_31 <=1 
C653: x19+x33-y19_33 <=1 
C654: x19+x36-y19_36 <=1 
C655: x19+x38-y19_38 <=1 
C656: x19+x41 <=1 
C657: x19+x43 <=1 
C658: x19+x44 <=1 
C659: x19+x45 <=1 
C660: x19+x53-y19_53 <=1 
C661: x19+x54-y19_54 <=1 
C662: x19+x55 <=1 
C663: x19+x56 <=1 
C664: x19+x61 <=1 
C665: x19+x63-y19_63 <=1 
C666: x19+x64-y19_64 <=1 
C667: x19+x66 <=1 
C668: x20+x21 <=1 
C669: x20+x25-y20_25 <=1 
C670: x20+x26-y20_26 <=1 
C671: x20+x27-y20_27 <=1 
C672: x20+x29-y20_29 <=1 
C673: x20+x30 <=1 
C674: x20+x32 <=1 
C675: x20+x33-y20_33 <=1 
C676: x20+x34-y20_34 <=1 
C677: x20+x35-y20_35 <=1 
C678: x20+x36-y20_36 <=1 
C679: x20+x39-y20_39 <=1 
C680: x20+x40 <=1 
C681: x20+x41 <=1 
C682: x20+x42-y20_42 <=1 
C683: x20+x46-y20_46 <=1 
C684: x20+x47 <=1 
C685: x20+x48-y20_48 <=1 
C686: x20+x49-y20_49 <=1 
C687: x20+x50-y20_50 <=1 
C688: x20+x52 <=1 
C689: x20+x53-y20_53 <=1 
C690: x20+x55 <=1 
C691: x20+x56-y20_56 <=1 
C692: x20+x57 <=1 
C693: x20+x59-y20_59 <=1 
C694: x20+x60-y20_60 <=1 
C695: x20+x61 <=1 
C696: x20+x62-y20_62 <=1 
C697: x20+x63 <=1 
C698: x21+x23-y21_23 <=1 
C699: x21+x24 <=1 
C700: x21+x25-y21_25 <=1 
C701: x21+x26 <=1 
C702: x21+x28 <=1 
C703: x21+x30-y21_30 <=1 
C704: x21+x31-y21_31 <=1 
C705: x21+x32-y21_32 <=1 
C706: x21+x33 <=1 
C707: x21+x34 <=1 
C708: x21+x36 <=1 
C709: x21+x37-y21_37 <=1 
C710: x21+x40-y21_40 <=1 
C711: x21+x42-y21_42 <=1 
C712: x21+x45 <=1 
C713: x21+x46-y21_46 <=1 
C714: x21+x47 <=1 
C715: x21+x48-y21_48 <=1 
C716: x21+x49 <=1 
C717: x21+x50-y21_50 <=1 
C718: x21+x51-y21_51 <=1 
C719: x21+x55 <=1 
C720: x21+x56 <=1 
C721: x21+x58-y21_58 <=1 
C722: x21+x60 <=1 
C723: x21+x62-y21_62 <=1 
C724: x21+x63 <=1 
C725: x21+x66 <=1 
C726: x22+x23-y22_23 <=1 
C727: x22+x24 <=1 
C728: x22+x31 <=1 
C729: x22+x33-y22_33 <=1 
C730: x22+x34 <=1 
C731: x22+x35-y22_35 <=1 
C732: x22+x38-y22_38 <=1 
C733: x22+x39-y22_39 <=1 
C734: x22+x40 <=1 
C735: x22+x41-y22_41 <=1 
C736: x22+x43 <=1 
C737: x22+x44-y22_44 <=1 
C738: x22+x46 <=1 
C739: x22+x48 <=1 
C740: x22+x50-y22_50 <=1 
C741: x22+x51-y22_51 <=1 
C742: x22+x52 <=1 
C743: x22+x54-y22_54 <=1 
C744: x22+x55 <=1 
C745: x22+x57-y22_57 <=1 
C746: x22+x60-y22_60 <=1 
C747: x22+x61-y22_61 <=1 
C748: x22+x63 <=1 
C749: x22+x64-y22_64 <=1 
C750: x22+x65-y22_65 <=1 
C751: x23+x24-y23_24 <=1 
C752: x23+x27-y23_27 <=1 
C753: x23+x28-y23_28 <=1 
C754: x23+x30-y23_30 <=1 
C755: x23+x31 <=1 
C756: x23+x32 <=1 
C757: x23+x33 <=1 
C758: x23+x34-y23_34 <=1 
C759: x23+x36 <=1 
C760: x23+x38 <=1 
C761: x23+x43-y23_43 <=1 
C762: x23+x44 <=1 
C763: x23+x47 <=1 
C764: x23+x48-y23_48 <=1 
C765: x23+x49 <=1 
C766: x23+x50 <=1 
C767: x23+x51 <=1 
C768: x23+x54-y23_54 <=1 
C769: x23+x56 <=1 
C770: x23+x57-y23_57 <=1 
C771: x23+x58 <=1 
C772: x23+x62 <=1 
C773: x24+x25 <=1 
C774: x24+x26 <=1 
C775: x24+x27 <=1 
C776: x24+x30-y24_30 <=1 
C777: x24+x34 <=1 
C778: x24+x36 <=1 
C779: x24+x37-y24_37 <=1 
C780: x24+x41-y24_41 <=1 
C781: x24+x42-y24_42 <=1 
C782: x24+x43-y24_43 <=1 
C783: x24+x44 <=1 
C784: x24+x45-y24_45 <=1 
C785: x24+x47 <=1 
C786: x24+x49 <=1 
C787: x24+x50-y24_50 <=1 
C788: x24+x51-y24_51 <=1 
C789: x24+x52-y24_52 <=1 
C790: x24+x53-y24_53 <=1 
C791: x24+x54-y24_54 <=1 
C792: x24+x56-y24_56 <=1 
C793: x24+x59-y24_59 <=1 
C794: x24+x60 <=1 
C795: x24+x61-y24_61 <=1 
C796: x24+x63-y24_63 <=1 
C797: x24+x64 <=1 
C798: x24+x65 <=1 
C799: x24+x66-y24_66 <=1 
C800: x25+x28-y25_28 <=1 
C801: x25+x29 <=1 
C802: x25+x30-y25_30 <=1 
C803: x25+x31-y25_31 <=1 
C804: x25+x32 <=1 
C805: x25+x33-y25_33 <=1 
C806: x25+x34 <=1 
C807: x25+x35 <=1 
C808: x25+x38-y25_38 <=1 
C809: x25+x39 <=1 
C810: x25+x41 <=1 
C811: x25+x42-y25_42 <=1 
C812: x25+x43 <=1 
C813: x25+x46-y25_46 <=1 
C814: x25+x48 <=1 
C815: x25+x50-y25_50 <=1 
C816: x25+x53-y25_53 <=1 
C817: x25+x54-y25_54 <=1 
C818: x25+x55 <=1 
C819: x25+x60-y25_60 <=1 
C820: x25+x61 <=1 
C821: x25+x62 <=1 
C822: x25+x64 <=1 
C823: x25+x65-y25_65 <=1 
C824: x26+x27 <=1 
C825: x26+x29-y26_29 <=1 
C826: x26+x30-y26_30 <=1 
C827: x26+x33 <=1 
C828: x26+x34 <=1 
C829: x26+x36-y26_36 <=1 
C830: x26+x37-y26_37 <=1 
C831: x26+x38 <=1 
C832: x26+x39-y26_39 <=1 
C833: x26+x40-y26_40 <=1 
C834: x26+x41 <=1 
C835: x26+x42-y26_42 <=1 
C836: x26+x43 <=1 
C837: x26+x45-y26_45 <=1 
C838: x26+x46-y26_46 <=1 
C839: x26+x47-y26_47 <=1 
C840: x26+x49 <=1 
C841: x26+x50 <=1 
C842: x26+x52 <=1 
C843: x26+x53-y26_53 <=1 
C844: x26+x54-y26_54 <=1 
C845: x26+x56 <=1 
C846: x26+x57-y26_57 <=1 
C847: x26+x59 <=1 
C848: x26+x61-y26_61 <=1 
C849: x26+x63-y26_63 <=1 
C850: x26+x64 <=1 
C851: x26+x66 <=1 
C852: x27+x30-y27_30 <=1 
C853: x27+x31 <=1 
C854: x27+x33-y27_33 <=1 
C855: x27+x34-y27_34 <=1 
C856: x27+x36-y27_36 <=1 
C857: x27+x37-y27_37 <=1 
C858: x27+x38-y27_38 <=1 
C859: x27+x39-y27_39 <=1 
C860: x27+x42 <=1 
C861: x27+x43-y27_43 <=1 
C862: x27+x44 <=1 
C863: x27+x45 <=1 
C864: x27+x46 <=1 
C865: x27+x48-y27_48 <=1 
C866: x27+x49 <=1 
C867: x27+x50 <=1 
C868: x27+x52 <=1 
C869: x27+x54 <=1 
C870: x27+x55 <=1 
C871: x27+x58-y27_58 <=1 
C872: x27+x59 <=1 
C873: x27+x60 <=1 
C874: x27+x62 <=1 
C875: x27+x64-y27_64 <=1 
C876: x27+x66 <=1 
C877: x28+x29-y28_29 <=1 
C878: x28+x30 <=1 
C879: x28+x31-y28_31 <=1 
C880: x28+x33 <=1 
C881: x28+x34 <=1 
C882: x28+x35 <=1 
C883: x28+x36 <=1 
C884: x28+x37-y28_37 <=1 
C885: x28+x38 <=1 
C886: x28+x39-y28_39 <=1 
C887: x28+x40 <=1 
C888: x28+x42 <=1 
C889: x28+x44-y28_44 <=1 
C890: x28+x45-y28_45 <=1 
C891: x28+x46-y28_46 <=1 
C892: x28+x48 <=1 
C893: x28+x49-y28_49 <=1 
C894: x28+x50 <=1 
C895: x28+x51 <=1 
C896: x28+x53 <=1 
C897: x28+x54 <=1 
C898: x28+x55 <=1 
C899: x28+x56-y28_56 <=1 
C900: x28+x59-y28_59 <=1 
C901: x28+x61 <=1 
C902: x28+x62 <=1 
C903: x28+x64 <=1 
C904: x28+x65-y28_65 <=1 
C905: x29+x33 <=1 
C906: x29+x35 <=1 
C907: x29+x37-y29_37 <=1 
C908: x29+x38 <=1 
C909: x29+x40 <=1 
C910: x29+x41-y29_41 <=1 
C911: x29+x44-y29_44 <=1 
C912: x29+x46-y29_46 <=1 
C913: x29+x51-y29_51 <=1 
C914: x29+x52-y29_52 <=1 
C915: x29+x54-y29_54 <=1 
C916: x29+x56 <=1 
C917: x29+x57-y29_57 <=1 
C918: x29+x60 <=1 
C919: x29+x62 <=1 
C920: x29+x64-y29_64 <=1 
C921: x29+x66 <=1 
C922: x30+x31 <=1 
C923: x30+x34-y30_34 <=1 
C924: x30+x38 <=1 
C925: x30+x39 <=1 
C926: x30+x44 <=1 
C927: x30+x45-y30_45 <=1 
C928: x30+x46-y30_46 <=1 
C929: x30+x48-y30_48 <=1 
C930: x30+x49-y30_49 <=1 
C931: x30+x51 <=1 
C932: x30+x54 <=1 
C933: x30+x55-y30_55 <=1 
C934: x30+x56 <=1 
C935: x30+x57-y30_57 <=1 
C936: x30+x60 <=1 
C937: x30+x61-y30_61 <=1 
C938: x30+x62 <=1 
C939: x30+x66 <=1 
C940: x31+x32 <=1 
C941: x31+x34 <=1 
C942: x31+x39 <=1 
C943: x31+x40-y31_40 <=1 
C944: x31+x44 <=1 
C945: x31+x47-y31_47 <=1 
C946: x31+x50-y31_50 <=1 
C947: x31+x58 <=1 
C948: x31+x60 <=1 
C949: x31+x61-y31_61 <=1 
C950: x31+x63 <=1 
C951: x31+x66 <=1 
C952: x32+x34-y32_34 <=1 
C953: x32+x35-y32_35 <=1 
C954: x32+x36-y32_36 <=1 
C955: x32+x37-y32_37 <=1 
C956: x32+x40 <=1 
C957: x32+x41 <=1 
C958: x32+x42 <=1 
C959: x32+x44 <=1 
C960: x32+x45 <=1 
C961: x32+x46 <=1 
C962: x32+x50-y32_50 <=1 
C963: x32+x52-y32_52 <=1 
C964: x32+x53-y32_53 <=1 
C965: x32+x56-y32_56 <=1 
C966: x32+x57-y32_57 <=1 
C967: x32+x58-y32_58 <=1 
C968: x32+x60 <=1 
C969: x32+x61 <=1 
C970: x32+x62 <=1 
C971: x32+x63 <=1 
C972: x32+x64-y32_64 <=1 
C973: x32+x65-y32_65 <=1 
C974: x32+x66 <=1 
C975: x33+x37-y33_37 <=1 
C976: x33+x38 <=1 
C977: x33+x39-y33_39 <=1 
C978: x33+x40-y33_40 <=1 
C979: x33+x46-y33_46 <=1 
C980: x33+x48-y33_48 <=1 
C981: x33+x49 <=1 
C982: x33+x50 <=1 
C983: x33+x51-y33_51 <=1 
C984: x33+x52 <=1 
C985: x33+x53-y33_53 <=1 
C986: x33+x54-y33_54 <=1 
C987: x33+x57 <=1 
C988: x33+x58 <=1 
C989: x33+x63 <=1 
C990: x33+x65-y33_65 <=1 
C991: x33+x66 <=1 
C992: x34+x36 <=1 
C993: x34+x37 <=1 
C994: x34+x38 <=1 
C995: x34+x41 <=1 
C996: x34+x43 <=1 
C997: x34+x44 <=1 
C998: x34+x47 <=1 
C999: x34+x49 <=1 
C1000: x34+x50-y34_50 <=1 
C1001: x34+x51 <=1 
C1002: x34+x52 <=1 
C1003: x34+x54 <=1 
C1004: x34+x55-y34_55 <=1 
C1005: x34+x56-y34_56 <=1 
C1006: x34+x57-y34_57 <=1 
C1007: x34+x60-y34_60 <=1 
C1008: x34+x63 <=1 
C1009: x34+x65 <=1 
C1010: x34+x66 <=1 
C1011: x35+x36 <=1 
C1012: x35+x37-y35_37 <=1 
C1013: x35+x38-y35_38 <=1 
C1014: x35+x40-y35_40 <=1 
C1015: x35+x41-y35_41 <=1 
C1016: x35+x42-y35_42 <=1 
C1017: x35+x44 <=1 
C1018: x35+x45-y35_45 <=1 
C1019: x35+x48 <=1 
C1020: x35+x50 <=1 
C1021: x35+x52-y35_52 <=1 
C1022: x35+x53-y35_53 <=1 
C1023: x35+x54-y35_54 <=1 
C1024: x35+x55 <=1 
C1025: x35+x59-y35_59 <=1 
C1026: x35+x61-y35_61 <=1 
C1027: x35+x62-y35_62 <=1 
C1028: x35+x63 <=1 
C1029: x35+x64-y35_64 <=1 
C1030: x36+x37-y36_37 <=1 
C1031: x36+x38-y36_38 <=1 
C1032: x36+x39 <=1 
C1033: x36+x40 <=1 
C1034: x36+x41-y36_41 <=1 
C1035: x36+x44-y36_44 <=1 
C1036: x36+x45 <=1 
C1037: x36+x46-y36_46 <=1 
C1038: x36+x53-y36_53 <=1 
C1039: x36+x55-y36_55 <=1 
C1040: x36+x59 <=1 
C1041: x36+x64 <=1 
C1042: x36+x65 <=1 
C1043: x37+x39 <=1 
C1044: x37+x40 <=1 
C1045: x37+x41 <=1 
C1046: x37+x42 <=1 
C1047: x37+x46-y37_46 <=1 
C1048: x37+x48-y37_48 <=1 
C1049: x37+x49 <=1 
C1050: x37+x51 <=1 
C1051: x37+x55 <=1 
C1052: x37+x58 <=1 
C1053: x37+x62 <=1 
C1054: x37+x63 <=1 
C1055: x37+x64 <=1 
C1056: x38+x40-y38_40 <=1 
C1057: x38+x42-y38_42 <=1 
C1058: x38+x43-y38_43 <=1 
C1059: x38+x46-y38_46 <=1 
C1060: x38+x48 <=1 
C1061: x38+x52-y38_52 <=1 
C1062: x38+x53 <=1 
C1063: x38+x54 <=1 
C1064: x38+x55-y38_55 <=1 
C1065: x38+x58-y38_58 <=1 
C1066: x38+x60 <=1 
C1067: x38+x61 <=1 
C1068: x38+x62 <=1 
C1069: x38+x63 <=1 
C1070: x38+x64 <=1 
C1071: x38+x65 <=1 
C1072: x38+x66-y38_66 <=1 
C1073: x39+x40 <=1 
C1074: x39+x41-y39_41 <=1 
C1075: x39+x44 <=1 
C1076: x39+x45-y39_45 <=1 
C1077: x39+x47-y39_47 <=1 
C1078: x39+x53-y39_53 <=1 
C1079: x39+x54-y39_54 <=1 
C1080: x39+x55 <=1 
C1081: x39+x56 <=1 
C1082: x39+x58-y39_58 <=1 
C1083: x39+x59 <=1 
C1084: x39+x63-y39_63 <=1 
C1085: x39+x64-y39_64 <=1 
C1086: x39+x65 <=1 
C1087: x40+x44-y40_44 <=1 
C1088: x40+x46-y40_46 <=1 
C1089: x40+x47-y40_47 <=1 
C1090: x40+x48 <=1 
C1091: x40+x49 <=1 
C1092: x40+x50 <=1 
C1093: x40+x51 <=1 
C1094: x40+x52-y40_52 <=1 
C1095: x40+x53-y40_53 <=1 
C1096: x40+x54-y40_54 <=1 
C1097: x40+x58 <=1 
C1098: x40+x61 <=1 
C1099: x40+x62 <=1 
C1100: x40+x64 <=1 
C1101: x40+x65-y40_65 <=1 
C1102: x41+x42-y41_42 <=1 
C1103: x41+x44 <=1 
C1104: x41+x45 <=1 
C1105: x41+x46 <=1 
C1106: x41+x48 <=1 
C1107: x41+x49 <=1 
C1108: x41+x50-y41_50 <=1 
C1109: x41+x54 <=1 
C1110: x41+x55-y41_55 <=1 
C1111: x41+x56 <=1 
C1112: x41+x57-y41_57 <=1 
C1113: x41+x58-y41_58 <=1 
C1114: x41+x59-y41_59 <=1 
C1115: x41+x60-y41_60 <=1 
C1116: x41+x62 <=1 
C1117: x41+x63 <=1 
C1118: x41+x64-y41_64 <=1 
C1119: x41+x65 <=1 
C1120: x42+x44-y42_44 <=1 
C1121: x42+x47 <=1 
C1122: x42+x49 <=1 
C1123: x42+x51-y42_51 <=1 
C1124: x42+x53 <=1 
C1125: x42+x54-y42_54 <=1 
C1126: x42+x56 <=1 
C1127: x42+x57-y42_57 <=1 
C1128: x42+x60 <=1 
C1129: x42+x61 <=1 
C1130: x42+x63 <=1 
C1131: x42+x64-y42_64 <=1 
C1132: x42+x65-y42_65 <=1 
C1133: x43+x44 <=1 
C1134: x43+x47-y43_47 <=1 
C1135: x43+x48 <=1 
C1136: x43+x49 <=1 
C1137: x43+x50-y43_50 <=1 
C1138: x43+x51-y43_51 <=1 
C1139: x43+x52 <=1 
C1140: x43+x55-y43_55 <=1 
C1141: x43+x57-y43_57 <=1 
C1142: x43+x58 <=1 
C1143: x43+x59 <=1 
C1144: x43+x61-y43_61 <=1 
C1145: x43+x62 <=1 
C1146: x43+x63 <=1 
C1147: x43+x64-y43_64 <=1 
C1148: x43+x66-y43_66 <=1 
C1149: x44+x45-y44_45 <=1 
C1150: x44+x47 <=1 
C1151: x44+x51 <=1 
C1152: x44+x52 <=1 
C1153: x44+x53 <=1 
C1154: x44+x54-y44_54 <=1 
C1155: x44+x55 <=1 
C1156: x44+x56-y44_56 <=1 
C1157: x44+x57 <=1 
C1158: x44+x60 <=1 
C1159: x44+x61-y44_61 <=1 
C1160: x44+x62 <=1 
C1161: x44+x63 <=1 
C1162: x44+x66-y44_66 <=1 
C1163: x45+x46-y45_46 <=1 
C1164: x45+x48 <=1 
C1165: x45+x49 <=1 
C1166: x45+x50-y45_50 <=1 
C1167: x45+x51-y45_51 <=1 
C1168: x45+x52 <=1 
C1169: x45+x53-y45_53 <=1 
C1170: x45+x54-y45_54 <=1 
C1171: x45+x55-y45_55 <=1 
C1172: x45+x56 <=1 
C1173: x45+x61-y45_61 <=1 
C1174: x45+x62 <=1 
C1175: x45+x63 <=1 
C1176: x45+x66-y45_66 <=1 
C1177: x46+x49-y46_49 <=1 
C1178: x46+x52-y46_52 <=1 
C1179: x46+x53 <=1 
C1180: x46+x57-y46_57 <=1 
C1181: x46+x59-y46_59 <=1 
C1182: x46+x60-y46_60 <=1 
C1183: x46+x62 <=1 
C1184: x46+x64-y46_64 <=1 
C1185: x47+x49 <=1 
C1186: x47+x52-y47_52 <=1 
C1187: x47+x56-y47_56 <=1 
C1188: x47+x59-y47_59 <=1 
C1189: x47+x62 <=1 
C1190: x47+x63-y47_63 <=1 
C1191: x47+x64-y47_64 <=1 
C1192: x47+x66 <=1 
C1193: x48+x49 <=1 
C1194: x48+x51-y48_51 <=1 
C1195: x48+x52-y48_52 <=1 
C1196: x48+x58 <=1 
C1197: x48+x59-y48_59 <=1 
C1198: x48+x60-y48_60 <=1 
C1199: x48+x61-y48_61 <=1 
C1200: x48+x63 <=1 
C1201: x48+x64 <=1 
C1202: x48+x65 <=1 
C1203: x49+x50-y49_50 <=1 
C1204: x49+x51 <=1 
C1205: x49+x52-y49_52 <=1 
C1206: x49+x53-y49_53 <=1 
C1207: x49+x54-y49_54 <=1 
C1208: x49+x57 <=1 
C1209: x49+x61-y49_61 <=1 
C1210: x49+x62-y49_62 <=1 
C1211: x49+x63 <=1 
C1212: x49+x64-y49_64 <=1 
C1213: x49+x66 <=1 
C1214: x50+x51-y50_51 <=1 
C1215: x50+x52-y50_52 <=1 
C1216: x50+x54 <=1 
C1217: x50+x55 <=1 
C1218: x50+x56 <=1 
C1219: x50+x57-y50_57 <=1 
C1220: x50+x58 <=1 
C1221: x50+x61 <=1 
C1222: x50+x62-y50_62 <=1 
C1223: x50+x63 <=1 
C1224: x50+x66-y50_66 <=1 
C1225: x51+x52 <=1 
C1226: x51+x54-y51_54 <=1 
C1227: x51+x56 <=1 
C1228: x51+x57-y51_57 <=1 
C1229: x51+x59-y51_59 <=1 
C1230: x51+x61-y51_61 <=1 
C1231: x51+x64 <=1 
C1232: x51+x65-y51_65 <=1 
C1233: x52+x53 <=1 
C1234: x52+x54 <=1 
C1235: x52+x55-y52_55 <=1 
C1236: x52+x56-y52_56 <=1 
C1237: x52+x58 <=1 
C1238: x52+x59-y52_59 <=1 
C1239: x52+x60-y52_60 <=1 
C1240: x52+x61 <=1 
C1241: x52+x62-y52_62 <=1 
C1242: x52+x63-y52_63 <=1 
C1243: x52+x64 <=1 
C1244: x52+x65 <=1 
C1245: x52+x66-y52_66 <=1 
C1246: x53+x54 <=1 
C1247: x53+x55 <=1 
C1248: x53+x56 <=1 
C1249: x53+x57 <=1 
C1250: x53+x58-y53_58 <=1 
C1251: x53+x59 <=1 
C1252: x53+x60-y53_60 <=1 
C1253: x53+x61 <=1 
C1254: x53+x64-y53_64 <=1 
C1255: x53+x66-y53_66 <=1 
C1256: x54+x57-y54_57 <=1 
C1257: x54+x61-y54_61 <=1 
C1258: x54+x62 <=1 
C1259: x54+x64-y54_64 <=1 
C1260: x54+x65 <=1 
C1261: x54+x66-y54_66 <=1 
C1262: x55+x56 <=1 
C1263: x55+x57 <=1 
C1264: x55+x61-y55_61 <=1 
C1265: x55+x63 <=1 
C1266: x55+x65-y55_65 <=1 
C1267: x55+x66 <=1 
C1268: x56+x58 <=1 
C1269: x56+x59-y56_59 <=1 
C1270: x56+x61-y56_61 <=1 
C1271: x56+x63-y56_63 <=1 
C1272: x56+x64 <=1 
C1273: x56+x65 <=1 
C1274: x56+x66 <=1 
C1275: x57+x59-y57_59 <=1 
C1276: x57+x60-y57_60 <=1 
C1277: x57+x61-y57_61 <=1 
C1278: x57+x62 <=1 
C1279: x57+x64 <=1 
C1280: x58+x59-y58_59 <=1 
C1281: x58+x61-y58_61 <=1 
C1282: x58+x63 <=1 
C1283: x58+x64-y58_64 <=1 
C1284: x58+x66 <=1 
C1285: x59+x60-y59_60 <=1 
C1286: x59+x63 <=1 
C1287: x59+x64 <=1 
C1288: x59+x65-y59_65 <=1 
C1289: x60+x61 <=1 
C1290: x60+x63 <=1 
C1291: x60+x65-y60_65 <=1 
C1292: x60+x66 <=1 
C1293: x61+x64-y61_64 <=1 
C1294: x61+x65 <=1 
C1295: x61+x66 <=1 
C1296: x62+x65 <=1 
C1297: x62+x66 <=1 
C1298: x63+x64 <=1 
C1299: x63+x65 <=1 
C1300: x64+x65 <=1 
C1301: x65+x66-y65_66 <=1 

binary
x0
x1
x2
x3
x4
x5
x6
x7
x8
x9
x10
x11
x12
x13
x14
x15
x16
x17
x18
x19
x20
x21
x22
x23
x24
x25
x26
x27
x28
x29
x30
x31
x32
x33
x34
x35
x36
x37
x38
x39
x40
x41
x42
x43
x44
x45
x46
x47
x48
x49
x50
x51
x52
x53
x54
x55
x56
x57
x58
x59
x60
x61
x62
x63
x64
x65
x66
