problem_generation/data/GISP/train/er_n=67_m=1301_p=0.60_SET2_setparam=100.00_alpha=0.50_776.sol
objective value:                                 1458
x6                                                  1 	(obj:100)
x11                                                 1 	(obj:100)
x12                                                 1 	(obj:100)
x13                                                 1 	(obj:100)
x18                                                 1 	(obj:100)
x24                                                 1 	(obj:100)
x29                                                 1 	(obj:100)
x31                                                 1 	(obj:100)
x46                                                 1 	(obj:100)
x48                                                 1 	(obj:100)
x51                                                 1 	(obj:100)
x54                                                 1 	(obj:100)
x55                                                 1 	(obj:100)
x59                                                 1 	(obj:100)
x61                                                 1 	(obj:100)
y55_61                                              1 	(obj:-1)
y29_54                                              1 	(obj:-1)
y6_61                                               1 	(obj:-1)
y51_59                                              1 	(obj:-1)
y51_54                                              1 	(obj:-1)
y13_55                                              1 	(obj:-1)
y13_59                                              1 	(obj:-1)
y24_59                                              1 	(obj:-1)
y24_54                                              1 	(obj:-1)
y31_61                                              1 	(obj:-1)
y46_59                                              1 	(obj:-1)
y6_13                                               1 	(obj:-1)
y11_46                                              1 	(obj:-1)
y11_59                                              1 	(obj:-1)
y18_48                                              1 	(obj:-1)
y11_31                                              1 	(obj:-1)
y18_29                                              1 	(obj:-1)
y48_61                                              1 	(obj:-1)
y6_59                                               1 	(obj:-1)
y48_51                                              1 	(obj:-1)
y6_54                                               1 	(obj:-1)
y51_61                                              1 	(obj:-1)
y6_31                                               1 	(obj:-1)
y29_51                                              1 	(obj:-1)
y13_48                                              1 	(obj:-1)
y12_51                                              1 	(obj:-1)
y24_61                                              1 	(obj:-1)
y12_46                                              1 	(obj:-1)
y54_61                                              1 	(obj:-1)
y13_29                                              1 	(obj:-1)
y24_51                                              1 	(obj:-1)
y18_51                                              1 	(obj:-1)
y11_48                                              1 	(obj:-1)
y12_13                                              1 	(obj:-1)
y18_55                                              1 	(obj:-1)
y13_18                                              1 	(obj:-1)
y18_59                                              1 	(obj:-1)
y18_54                                              1 	(obj:-1)
y11_24                                              1 	(obj:-1)
y18_31                                              1 	(obj:-1)
y29_46                                              1 	(obj:-1)
y48_59                                              1 	(obj:-1)
